[[36, 39, 35, 34, 44, 49, 22, 32, 45, 10, 9, 8, 41, 19, 3, 18, 31, 17, 21], [42, 7, 2, 30, 23, 20, 50, 16, 29, 47, 26, 13, 14], [52, 11, 27, 28, 12, 51, 33, 43, 4, 6, 25, 46, 48, 24, 5, 15, 38, 37, 40]]